maximize
 + 9.0 x0  - 2.0 y1  - 4.0 y2  - 1.0 y3  - 1.0 y4 
subject to
 + 2.0 x0  - 1.0 y1  - 1.0 y2 =  +0.0 
 + 0.0 x0  - 1.0 y3  - 1.0 y4 =  +0.0 
 y0 <=  +1.0 
 y1 <=  +1.0 
 y2 <=  +1.0 
 y3 <=  +1.0 

binary
 x0 
general
 y1  y2  y3  y4 
end